<number of tasks>
7

<cycle time>
6

<task times>
1 1
2 5
3 4
4 3
5 5
6 6
7 5

<task process alternatives>
1: 1,15 ; 2,8
2: 4,15 ; 6,8
3: 4,15 ; 5,8
4: 3,15 ; 4,8
5: 4,15 ; 6,8
6: 5,15 ; 8,8
7: 4,15 ; 6,8

<incompatible tasks>
7,2
3,5

<precedence relations>
1,2
1,4
2,3
5,6
2,5
4,7

<linked tasks>
1,4

<optimal SALBP-1 value>
6

<rand seed>
236278236

<end>
